
Gurobi 11.0.3 (linux64) logging started Wed 20 Nov 2024 08:35:33 AM CST

Set parameter LogFile to value "/home/dlcole3/graph_abstraction/hierarchical_graphs/git_storage/CS1/HP_low_reserves/gurobi_logs/monolith/logfile13.log"
Set parameter NodefileStart to value 0.0005
Set parameter TimeLimit to value 7200

Gurobi 11.0.3 (linux64) logging started Wed 20 Nov 2024 08:36:17 AM CST

Set parameter LogFile to value "/home/dlcole3/graph_abstraction/hierarchical_graphs/git_storage/CS1/HP_low_reserves/gurobi_logs/monolith/logfile13.log"
Set parameter TimeLimit to value 7200
Gurobi Optimizer version 11.0.3 build v11.0.3rc0 (linux64 - "Ubuntu 18.04.3 LTS")

CPU model: Intel(R) Xeon(R) CPU E5-2698 v4 @ 2.20GHz, instruction set [SSE2|AVX|AVX2]
Thread count: 40 physical cores, 80 logical processors, using up to 20 threads

Optimize a model with 1105538 rows, 641709 columns and 4646693 nonzeros
Model fingerprint: 0x30d1e9cb
Variable types: 599982 continuous, 41727 integer (41727 binary)
Coefficient statistics:
  Matrix range     [5e-02, 2e+04]
  Objective range  [2e-01, 8e+04]
  Bounds range     [5e-02, 2e+05]
  RHS range        [1e-16, 7e+03]
Presolve removed 252372 rows and 123288 columns (presolve time = 5s) ...
Presolve removed 261664 rows and 124202 columns (presolve time = 10s) ...
Presolve removed 265277 rows and 125382 columns (presolve time = 15s) ...
Presolve removed 265559 rows and 125534 columns (presolve time = 20s) ...
Presolve removed 265661 rows and 125534 columns (presolve time = 25s) ...
Presolve removed 265681 rows and 125604 columns (presolve time = 30s) ...
Sparsify removed 140662 nonzeros (3%)
Presolve removed 265681 rows and 208642 columns (presolve time = 35s) ...
Presolve removed 265681 rows and 124330 columns
Presolve time: 36.05s
Presolved: 839857 rows, 517379 columns, 4489129 nonzeros
Variable types: 477297 continuous, 40082 integer (40012 binary)

Deterministic concurrent LP optimizer: primal simplex, dual simplex, and barrier
Showing barrier log only...

Root barrier log...

Elapsed ordering time = 5s
Elapsed ordering time = 10s
Elapsed ordering time = 38s
Elapsed ordering time = 41s
Elapsed ordering time = 46s
Elapsed ordering time = 50s
Elapsed ordering time = 55s
Elapsed ordering time = 60s
Elapsed ordering time = 66s
Elapsed ordering time = 71s
Elapsed ordering time = 75s
Elapsed ordering time = 80s
Elapsed ordering time = 92s
Elapsed ordering time = 96s
Elapsed ordering time = 100s
Elapsed ordering time = 105s
Ordering time: 116.57s

Barrier statistics:
 Dense cols : 297
 AA' NZ     : 4.909e+07
 Factor NZ  : 5.593e+08 (roughly 5.0 GB of memory)
 Factor Ops : 3.200e+12 (roughly 12 seconds per iteration)
 Threads    : 17

                  Objective                Residual
Iter       Primal          Dual         Primal    Dual     Compl     Time
   0  -2.11250063e+11 -1.80241505e+13  1.29e+04 6.71e+03  1.16e+08   178s
   1  -1.43948341e+11 -1.50966052e+13  9.48e+03 1.74e+05  8.23e+07   183s
   2  -1.02363491e+11 -1.18410507e+13  7.01e+03 7.95e+04  5.60e+07   188s
   3  -5.70966376e+10 -7.92502342e+12  4.16e+03 2.48e+04  3.16e+07   194s
   4  -2.07767499e+10 -3.58391009e+12  1.70e+03 3.77e+02  1.22e+07   200s
   5  -5.61778774e+09 -1.44129084e+12  6.61e+02 3.41e+02  4.38e+06   207s
   6   4.01423500e+08 -8.14706041e+11  2.73e+02 1.50e+02  1.78e+06   214s
   7   3.34618880e+09 -4.27056499e+11  9.08e+01 1.03e+01  6.10e+05   222s
   8   4.15674592e+09 -2.04146118e+11  3.38e+01 8.35e+00  2.17e+05   230s
   9   3.84895399e+09 -8.04449173e+10  1.06e+01 1.25e+01  6.81e+04   238s
  10   2.40737412e+09 -2.81900651e+10  4.40e+00 3.06e+00  2.18e+04   249s
  11   1.09460376e+09 -1.17961860e+10  1.91e+00 1.05e+00  8.48e+03   259s
  12   4.22239840e+08 -4.63293452e+09  6.39e-01 3.65e-01  3.10e+03   268s
  13   2.10594020e+08 -2.40550779e+09  2.40e-01 1.82e-01  1.55e+03   277s
  14   1.06477906e+08 -8.80517909e+08  6.25e-02 6.59e-02  5.73e+02   286s
  15   8.03532746e+07 -5.17460885e+08  2.57e-02 3.96e-02  3.45e+02   295s
  16   6.01504943e+07 -2.41663075e+08  3.45e-03 1.92e-02  1.73e+02   305s
  17   5.20190300e+07 -7.94709063e+07  1.05e-03 7.73e-03  7.55e+01   315s
  18   4.58112388e+07 -2.98232238e+06  4.65e-04 2.40e-03  2.80e+01   325s
  19   4.16400812e+07  2.08125478e+07  2.34e-04 8.67e-04  1.20e+01   336s
  20   3.92102352e+07  2.74432993e+07  1.52e-04 4.56e-04  6.76e+00   346s
  21   3.75992546e+07  2.96289578e+07  9.48e-05 3.18e-04  4.58e+00   356s
  22   3.71116740e+07  3.02813642e+07  7.87e-05 2.75e-04  3.92e+00   366s
  23   3.68871028e+07  3.12094822e+07  7.12e-05 2.17e-04  3.26e+00   375s
  24   3.64153986e+07  3.24128517e+07  5.67e-05 1.43e-04  2.30e+00   384s
  25   3.59304803e+07  3.28237509e+07  4.16e-05 1.15e-04  1.78e+00   394s
  26   3.57444802e+07  3.32968493e+07  3.67e-05 8.32e-05  1.41e+00   404s
  27   3.53452413e+07  3.37519538e+07  2.45e-05 5.19e-05  9.15e-01   415s
  28   3.51006264e+07  3.41421151e+07  1.72e-05 2.43e-05  5.51e-01   426s
  29   3.49652767e+07  3.42337166e+07  1.36e-05 1.82e-05  4.20e-01   437s
  30   3.48707540e+07  3.43064592e+07  1.08e-05 1.31e-05  3.24e-01   447s
  31   3.48053655e+07  3.43250819e+07  8.86e-06 1.19e-05  2.76e-01   457s
  32   3.47570137e+07  3.43565345e+07  7.42e-06 9.64e-06  2.30e-01   467s
  33   3.47443650e+07  3.43710643e+07  7.05e-06 8.68e-06  2.14e-01   476s
  34   3.46965870e+07  3.43969069e+07  5.68e-06 6.97e-06  1.72e-01   486s
  35   3.46563549e+07  3.44232114e+07  4.61e-06 5.13e-06  1.34e-01   496s
  36   3.46135549e+07  3.44463986e+07  7.05e-06 3.52e-06  9.60e-02   507s
  37   3.45832519e+07  3.44544843e+07  7.46e-06 2.97e-06  7.40e-02   520s
  38   3.45678514e+07  3.44692405e+07  7.54e-06 1.98e-06  5.67e-02   532s
  39   3.45396882e+07  3.44814718e+07  7.52e-06 1.19e-06  3.34e-02   543s
  40   3.45303527e+07  3.44878567e+07  4.66e-06 7.83e-07  2.44e-02   558s
  41   3.45249151e+07  3.44926860e+07  3.33e-06 4.76e-07  1.85e-02   574s
  42   3.45231582e+07  3.44933780e+07  3.03e-06 4.31e-07  1.71e-02   587s
  43   3.45174583e+07  3.44951005e+07  2.86e-06 3.24e-07  1.28e-02   599s
  44   3.45123735e+07  3.44973862e+07  1.64e-06 1.85e-07  8.61e-03   614s
  45   3.45075095e+07  3.44986968e+07  1.65e-06 1.11e-07  5.06e-03   630s
  46   3.45037203e+07  3.44996505e+07  8.62e-07 6.15e-08  2.34e-03   645s
  47   3.45021318e+07  3.45002964e+07  1.04e-06 2.15e-08  1.05e-03   659s
  48   3.45019910e+07  3.45006726e+07  9.25e-07 1.51e-08  7.58e-04   671s
  49   3.45012705e+07  3.45008384e+07  3.10e-07 7.21e-09  2.48e-04   683s
  50   3.45009184e+07  3.45008784e+07  9.71e-08 1.05e-08  2.30e-05   695s
  51   3.45008987e+07  3.45008983e+07  8.99e-09 1.70e-08  2.36e-07   705s
  52   3.45008985e+07  3.45008985e+07  1.32e-08 1.65e-08  1.54e-09   715s

Barrier solved model in 52 iterations and 714.68 seconds (759.37 work units)
Optimal objective 3.45008985e+07


Root crossover log...

  290243 DPushes remaining with DInf 0.0000000e+00               716s
  115113 DPushes remaining with DInf 0.0000000e+00               722s
   81463 DPushes remaining with DInf 0.0000000e+00               726s
   51349 DPushes remaining with DInf 0.0000000e+00               731s
   33011 DPushes remaining with DInf 0.0000000e+00               735s
   17577 DPushes remaining with DInf 0.0000000e+00               740s
    6185 DPushes remaining with DInf 0.0000000e+00               746s
    2902 DPushes remaining with DInf 0.0000000e+00               750s
       0 DPushes remaining with DInf 0.0000000e+00               753s

   18221 PPushes remaining with PInf 0.0000000e+00               754s
    9779 PPushes remaining with PInf 0.0000000e+00               755s
       0 PPushes remaining with PInf 0.0000000e+00               759s

  Push phase complete: Pinf 0.0000000e+00, Dinf 4.9937088e-07    759s


Root simplex log...

Iteration    Objective       Primal Inf.    Dual Inf.      Time
  144776    3.4500898e+07   0.000000e+00   0.000000e+00    760s
  144776    3.4500898e+07   0.000000e+00   0.000000e+00    762s
Waiting for other threads to finish...         829s
Waiting for other threads to finish...         895s
Waiting for other threads to finish...         962s
Waiting for other threads to finish...        1029s
Waiting for other threads to finish...        1095s
Waiting for other threads to finish...        1162s
Waiting for other threads to finish...        1229s
Waiting for other threads to finish...        1295s
Waiting for other threads to finish...        1362s
Waiting for other threads to finish...        1428s
Waiting for other threads to finish...        1495s
Waiting for other threads to finish...        1561s
Waiting for other threads to finish...        1628s
Concurrent spin time: 888.31s (can be avoided by choosing Method=3)

Solved with barrier

Root relaxation: objective 3.450090e+07, 144776 iterations, 1609.92 seconds (746.21 work units)
Total elapsed time = 1660.10s (DegenMoves)

    Nodes    |    Current Node    |     Objective Bounds      |     Work
 Expl Unexpl |  Obj  Depth IntInf | Incumbent    BestBd   Gap | It/Node Time

     0     0 3.4501e+07    0  336          - 3.4501e+07      -     - 1681s
H    0     0                    3.605306e+07 3.4501e+07  4.31%     - 1723s
     0     0 3.5051e+07    0  200 3.6053e+07 3.5051e+07  2.78%     - 2296s
H    0     0                    3.526172e+07 3.5052e+07  0.59%     - 2340s

Cutting planes:
  Gomory: 3
  Implied bound: 1131
  MIR: 115
  Flow cover: 4410
  Relax-and-lift: 83

Explored 1 nodes (228139 simplex iterations) in 2340.48 seconds (1197.15 work units)
Thread count was 20 (of 80 available processors)

Solution count 3: 3.52617e+07 3.52617e+07 3.60531e+07 

Optimal solution found (tolerance 1.00e-02)
Best objective 3.526172212541e+07, best bound 3.505235133629e+07, gap 0.5938%

User-callback calls 900586, time in user-callback 3.19 sec
